NAME : n80w140.003.673.tour
COMMENT : Length = 673
COMMENT : Found by LKH [Keld Helsgaun] Tue May  2 05:47:35 2017
TYPE : TOUR
DIMENSION : 81
TOUR_SECTION
1
53
20
43
46
58
55
28
72
36
11
41
70
29
68
80
54
65
57
5
13
12
62
45
19
33
25
59
40
74
50
18
30
52
39
34
32
47
77
22
6
35
9
8
73
15
56
7
66
75
23
17
60
24
79
42
63
4
44
21
48
14
16
69
49
31
64
26
3
10
37
76
2
67
51
71
78
81
61
38
27
-1
EOF
